115
 generated by VMD
 Au       12.800885       14.130242       13.789515
 Au       10.998670       11.958240       14.099419
 Au       12.484541       13.145691       16.402981
 Au       11.648640       16.677788       13.391130
 Au        8.179364       10.099550       12.504722
 Au       18.068768       15.938343       16.473928
 Au       15.169645       14.047860       15.314387
 Au        8.848394       16.102867       18.114038
 Au       13.035945       16.002457       15.899452
 Au       10.334132       14.627357       15.110235
 Au       11.585517       17.306732       18.925285
 Au       12.470981       10.344371       18.624409
 Au       13.825896        8.697109       16.503275
 S         9.917357        9.826740       14.020318
 S        13.495506       17.588768       17.634228
 S        12.528525        8.008098       18.332363
 S         6.470268       10.508763       10.953839
 S        12.576638       12.645082       18.735651
 S         9.608605       17.002966       20.142464
 S         8.220094       15.068357       16.130632
 S        17.074881       13.854162       16.736088
 S        10.371017       18.702497       13.335157
 C         8.832302       18.664324       20.286625
 H         7.779340       18.521303       20.558205
 H         9.348735       19.212296       21.084011
 C        14.870825       16.859613       18.625664
 H        14.533187       16.636755       19.641680
 H        15.230868       15.944347       18.146357
 C        11.431628       19.953703       14.161682
 H        11.561428       19.631050       15.200573
 H        12.408949       20.036079       13.675416
 C        10.975156       13.186980       19.442106
 H        10.937374       12.870193       20.490223
 H        10.946826       14.283059       19.384335
 C         9.139109        9.568052       15.660928
 H         9.955854        9.503099       16.390898
 H         8.470206       10.390785       15.927226
 C        13.710944        7.342632       19.578087
 H        14.309909        6.558137       19.100334
 H        14.365111        8.128083       19.967176
 C         7.494232       16.404139       15.100220
 H         6.563423       16.738480       15.571667
 H         8.183999       17.245028       14.979002
 C         6.934288        9.583277        9.435822
 H         7.998690        9.689536        9.209171
 H         6.698339        8.525955        9.603073
 C        18.178268       12.673771       15.860423
 H        18.391125       13.000656       14.837933
 H        19.109472       12.580254       16.432159
 Au       14.574007       16.295340       13.382580
 Au       13.037515       15.119515       11.167385
 Au       13.917404       11.562851       14.304703
 Au       17.412800       18.268682       14.497836
 Au        7.474708       12.625254       10.809590
 Au       10.428960       14.234417       12.209173
 Au       16.645489       11.980716        9.469144
 Au       12.634921       12.253105       11.681232
 Au       15.188137       13.457665       12.468633
 Au       13.923803       10.782730        8.668498
 Au       11.877282       17.685160        8.758933
 Au       10.429867       19.253469       11.082371
 S        15.712503       18.358540       12.930870
 S        12.090810       10.574065       10.065043
 S        10.656656       19.689919        8.794900
 S        19.033482       18.057814       16.172968
 S        12.973303       15.641313        8.831674
 S        15.865055       11.161324        7.412442
 S        17.297714       12.806229       11.538826
 S         8.440725       14.723209       10.971850
 S        15.053263        9.486398       14.699064
 C        16.674496        9.527071        7.177229
 H        17.722544        9.704580        6.905510
 H        16.160786        9.011817        6.356320
 C        10.728712       11.349597        9.107190
 H        10.443005       10.668278        8.296339
 H        11.039479       12.314552        8.694475
 C        14.555616        8.415493       13.288745
 H        14.992013        8.845973       12.379341
 H        13.467821        8.370021       13.189598
 C        14.689007       15.888988        8.237694
 H        15.207243       16.672230        8.798485
 H        14.654199       16.152205        7.174266
 C        16.558090       18.178837       11.311935
 H        15.776132       18.112814       10.546169
 H        17.182085       17.281448       11.284484
 C         9.031853       19.304796        8.024131
 H         8.330952       20.102821        8.295834
 H         8.643171       18.340731        8.363329
 C        18.206444       14.366706       11.208662
 H        18.378061       14.857458       12.175014
 H        17.634113       15.033511       10.558671
 C        18.397326       19.126173       17.530405
 H        18.672535       20.159845       17.292233
 H        18.877651       18.818104       18.465628
 C         9.021332       15.126877        9.278980
 H         8.147836       15.260524        8.628018
 H         9.670715       14.342202        8.879017
 H         8.899286       19.224710       19.348799
 H        15.679569       17.599436       18.657055
 H        10.914752       20.920094       14.133760
 H        10.127521       12.770036       18.890133
 H         8.586374        8.621502       15.638001
 H        13.124044        6.909603       20.398781
 H         7.278522       15.968065       14.117232
 H         6.333087        9.967229        8.603833
 H        17.658762       11.709187       15.828056
 H        16.623779        8.921935        8.087858
 H         9.881415       11.501192        9.791572
 H        14.962544        7.412033       13.456403
 H        15.214312       14.933276        8.363593
 H        17.174158       19.069410       11.137258
 H         9.171480       19.286804        6.936853
 H        19.166561       14.120020       10.740328
 H        17.310780       19.048429       17.622965
 H         9.592425       16.064087        9.342120
