Zn O  Zn O 
 1.0000000000000000
     3.2932020099832324   -0.0000000000000000   -0.0000000000000000
    -1.6466010049916162    2.8519966004394610   -0.0000000000000000
    -0.0000000000000000    0.0000000000000000    5.2691232159731678
 Zn  O   Zn  O  
   1   1   1   1
Cartesian
 -0.0000000000000001 -0.0000000000000025  0.0026863577807700
 -0.0000000000000002  1.9013310669596366  0.6285106941326828
  0.0000000000000002  1.9013310669596368  2.6372479657673544
  0.0000000000000001 -0.0000000000000022  3.2630723021192667
